HUN,8,6,975
0,18,1,15,2,21,5,20,4,15,3,30
0,16,1,15,2,15,5,25,4,19,3,9
0,29,1,22,2,6,5,30,3,30,4,9
2,8,1,5,0,16,4,19,3,10,5,30
0,10,2,6,1,5,3,15,5,26,4,11
0,3,1,25,2,6,3,18,5,13,4,26
0,23,1,9,2,11,3,26,4,13,5,24
0,8,2,18,1,22,4,22,5,25,3,12
